sat
(:max-memory         18.63
 :memory             18.43
 :nlsat-arith-var    39
 :nlsat-atoms        171
 :nlsat-bool-var     24
 :nlsat-clauses      98
 :nlsat-conflicts    194
 :nlsat-decisions    15
 :nlsat-propagations 1570
 :nlsat-stages       419
 :num-allocs         111846
 :rlimit-count       33478
 :time               0.01
 :total-time         0.03)
